Version identifier: 22.1.0.0 | 2022-03-09 | 1a383f8ce
CPXPARAM_Threads                                 1
CPXPARAM_MIP_Strategy_VariableSelect             3
CPXPARAM_TimeLimit                               600
Tried aggregator 1 time.
Reduced MIP has 1825 rows, 10500 columns, and 84869 nonzeros.
Reduced MIP has 9000 binaries, 1500 generals, 0 SOSs, and 0 indicators.
Presolve time = 0.04 sec. (33.34 ticks)
Found incumbent of value 1550.000000 after 0.11 sec. (84.11 ticks)
Tried aggregator 1 time.
Detecting symmetries...
Reduced MIP has 1825 rows, 10500 columns, and 84869 nonzeros.
Reduced MIP has 9000 binaries, 1500 generals, 0 SOSs, and 0 indicators.
Presolve time = 0.05 sec. (41.33 ticks)
Probing time = 0.01 sec. (8.15 ticks)
Clique table members: 301.
MIP emphasis: balance optimality and feasibility.
MIP search method: dynamic search.
Parallel mode: none, using 1 thread.
Root relaxation solution time = 1.71 sec. (1802.37 ticks)

        Nodes                                         Cuts/
   Node  Left     Objective  IInf  Best Integer    Best Bound    ItCnt     Gap

*     0+    0                         1550.0000        0.0000           100.00%
      0     0        0.0000  1673     1550.0000        0.0000     5729  100.00%
      0     0        0.0000   833     1550.0000   ZeroHalf: 5     8093  100.00%
      0     0        0.0000   720     1550.0000   ZeroHalf: 5    12173  100.00%
*     0+    0                          164.0000        0.0000           100.00%
*     0+    0                           93.0000        0.0000           100.00%
*     0+    0                           70.0000        0.0000           100.00%
*     0+    0                           50.0000        0.0000           100.00%
*     0+    0                           36.0000        0.0000           100.00%
*     0+    0                           21.0000        0.0000           100.00%
*     0+    0                           20.0000        0.0000           100.00%
*     0+    0                           19.0000        0.0000           100.00%
      0     0  -1.00000e+75     0       19.0000        0.0000    12173  100.00%
Detecting symmetries...
      0     2        0.0000   435       19.0000        0.0000    12173  100.00%
Elapsed time = 43.29 sec. (46214.63 ticks, tree = 0.01 MB, solutions = 9)
      1     3        0.0000   926       19.0000        0.0000    23557  100.00%
      2     4        0.0000   792       19.0000        0.0000    29760  100.00%
      3     5        0.0000  1113       19.0000        0.0000    36297  100.00%
      4     6        0.0000   738       19.0000        0.0000    36448  100.00%
      5     7        0.0000   948       19.0000        0.0000    41290  100.00%
      6     8        0.0000   735       19.0000        0.0000    43108  100.00%
      7     9        0.0000  1163       19.0000        0.0000    63866  100.00%
      8    10        0.0000  1793       19.0000        0.0000    65382  100.00%
      9    11        0.0000  1523       19.0000        0.0000    66433  100.00%
     10    12        0.0000  1197       19.0000        0.0000    66619  100.00%
Elapsed time = 62.85 sec. (67146.26 ticks, tree = 0.12 MB, solutions = 9)
     12    14        0.0000   809       19.0000        0.0000    73963  100.00%
     13    15        0.0000   896       19.0000        0.0000    83232  100.00%
     15    17        0.0000   778       19.0000        0.0000    86759  100.00%
     16    18        0.0000   931       19.0000        0.0000    88328  100.00%
     18    20       -0.0000   755       19.0000        0.0000    90583  100.00%
     21    23       -0.0000   699       19.0000        0.0000    98956  100.00%
     23    25       -0.0000   781       19.0000        0.0000   104177  100.00%
     24    26       -0.0000   820       19.0000        0.0000   105803  100.00%
     25    27        0.0000   761       19.0000        0.0000   111563  100.00%
     27    29        0.0000   765       19.0000        0.0000   122656  100.00%
Elapsed time = 81.78 sec. (87873.48 ticks, tree = 0.42 MB, solutions = 9)
     28    30        0.0000   870       19.0000        0.0000   124983  100.00%
     30    32        0.0000   718       19.0000        0.0000   128279  100.00%
     32    34        0.0000   934       19.0000        0.0000   131626  100.00%
     34    36       -0.0000   683       19.0000        0.0000   136995  100.00%
     35    37        0.0000   677       19.0000        0.0000   140697  100.00%
     37    39        0.0000   693       19.0000        0.0000   145557  100.00%
     39    41       -0.0000   561       19.0000        0.0000   152650  100.00%
     40    42        0.0000   651       19.0000        0.0000   154057  100.00%
     41    43       -0.0000   575       19.0000        0.0000   166103  100.00%
     42    44       -0.0000   433       19.0000        0.0000   170361  100.00%
Elapsed time = 105.79 sec. (112773.01 ticks, tree = 0.68 MB, solutions = 9)
     43    45        0.0000   432       19.0000        0.0000   172458  100.00%
     44    46        0.0000   488       19.0000        0.0000   176467  100.00%
     45    47        0.2000   635       19.0000        0.0000   184896  100.00%
     46    48        0.1500   702       19.0000        0.0000   191913  100.00%
     47    49        0.0000   607       19.0000        0.0000   197616  100.00%
     49    51       -0.0000   586       19.0000        0.0000   198453  100.00%
     50    52        0.2500   696       19.0000        0.0000   203495  100.00%
     52    54        0.1000   614       19.0000        0.0000   209758  100.00%
     54    56       -0.0000   534       19.0000        0.0000   213609  100.00%
     55    57       -0.0000   445       19.0000        0.0000   221378  100.00%
Elapsed time = 125.01 sec. (133178.64 ticks, tree = 0.83 MB, solutions = 9)
     56    58        0.0333   692       19.0000        0.0000   227661  100.00%
     57    59        0.0000   555       19.0000        0.0000   231670  100.00%
     58    60        0.0000   513       19.0000        0.0000   236871  100.00%
     59    61        0.0000   506       19.0000        0.0000   238379  100.00%
     61    63        0.0000   434       19.0000        0.0000   241007  100.00%
     62    64       -0.0000   516       19.0000        0.0000   244200  100.00%
     63    65        0.1500   666       19.0000        0.0000   249023  100.00%
     64    66        0.0000   468       19.0000        0.0000   253707  100.00%
     66    68        0.0000   491       19.0000        0.0000   259283  100.00%
     67    69        0.0000   407       19.0000        0.0000   268541  100.00%
Elapsed time = 143.14 sec. (152117.88 ticks, tree = 1.01 MB, solutions = 9)
     68    70       -0.0000   498       19.0000        0.0000   274012  100.00%
     70    72       -0.0000   565       19.0000        0.0000   276436  100.00%
     71    73        0.0250   641       19.0000        0.0000   281096  100.00%
     73    75       -0.0000   526       19.0000        0.0000   285086  100.00%
     75    77       -0.0000   477       19.0000        0.0000   289559  100.00%
     77    79        0.2353   581       19.0000        0.0000   293882  100.00%
     78    80       -0.0000   385       19.0000        0.0000   297515  100.00%
     79    81       -0.0000   351       19.0000        0.0000   302357  100.00%
     80    82        0.0370   664       19.0000        0.0000   306690  100.00%
     82    84        0.0556   671       19.0000        0.0000   308948  100.00%
Elapsed time = 160.14 sec. (169559.38 ticks, tree = 1.27 MB, solutions = 9)
     83    85        0.2532   663       19.0000        0.0000   311753  100.00%
     85    87        1.0000   676       19.0000        0.0000   314025  100.00%
     88    90        1.0000   627       19.0000        0.0000   316614  100.00%
     90    92        0.0556   665       19.0000        0.0000   316676  100.00%
     92    94        1.0000   675       19.0000        0.0000   319561  100.00%
     94    96        1.0000   634       19.0000        0.0000   322829  100.00%
     96    98        1.0000   628       19.0000        0.0000   325833  100.00%
     98   100        1.0000   640       19.0000        0.0000   328928  100.00%
    100   102        0.0556   680       19.0000        0.0000   329105  100.00%
    101   103        1.0000   644       19.0000        0.0000   332370  100.00%
Elapsed time = 177.93 sec. (187380.20 ticks, tree = 1.63 MB, solutions = 9)
    104   106        1.0000   607       19.0000        0.0000   335222  100.00%
    106   108        1.0000   611       19.0000        0.0000   337241  100.00%
    109   111        1.0000   616       19.0000        0.0000   341330  100.00%
    112   114        1.0000   658       19.0000        0.0000   345432  100.00%
    115   117        1.0000   594       19.0000        0.0000   349842  100.00%
    118   120        0.0556   663       19.0000        0.0000   350383  100.00%
    119   121        1.0000   357       19.0000        0.0000   353332  100.00%
    121   123        1.0000   422       19.0000        0.0000   357174  100.00%
    123   125        1.0000   389       19.0000        0.0000   359273  100.00%
    124   126        1.0385   648       19.0000        0.0000   363472  100.00%
Elapsed time = 194.04 sec. (203498.16 ticks, tree = 1.76 MB, solutions = 9)
    126   128        1.0000   413       19.0000        0.0000   366050  100.00%
    128   130        1.1667   585       19.0000        0.0000   370234  100.00%
    130   132        1.0000   529       19.0000        0.0000   373930  100.00%
    132   134        1.0000   543       19.0000        0.0000   376431  100.00%
    133   135        1.1667   626       19.0000        0.0000   379652  100.00%
    135   137        1.0000   523       19.0000        0.0000   382394  100.00%
    137   139        1.2308   587       19.0000        0.0000   385655  100.00%
    138   140        1.0238   544       19.0000        0.0000   389892  100.00%
    140   142        1.0000   525       19.0000        0.0000   392623  100.00%
    142   144        1.3000   604       19.0000        0.0000   395865  100.00%
Elapsed time = 210.58 sec. (219930.32 ticks, tree = 2.09 MB, solutions = 9)
    144   146        1.3333   669       19.0000        0.0000   400193  100.00%
    145   147        1.0000   489       19.0000        0.0000   402726  100.00%
    146   148        1.0000   530       19.0000        0.0000   405466  100.00%
    149   151        1.0000   473       19.0000        0.0000   408250  100.00%
    150   152        1.0000   461       19.0000        0.0000   410924  100.00%
    152   154        1.5385   581       19.0000        0.0000   415128  100.00%
    153   155        1.2308   692       19.0000        0.0000   417892  100.00%
    155   157        1.0385   591       19.0000        0.0000   422685  100.00%
    157   159        1.0000   513       19.0000        0.0000   425896  100.00%
    160   162        1.0385   511       19.0000        0.0000   433887  100.00%
Elapsed time = 229.59 sec. (238789.58 ticks, tree = 2.41 MB, solutions = 9)
    166   168        1.1923   537       19.0000        0.0000   443625  100.00%
    172   174        1.4722   597       19.0000        0.0000   452571  100.00%
    176   178        1.2917   500       19.0000        0.0000   464120  100.00%
    182   184        2.0000   452       19.0000        0.0000   471872  100.00%
    187   189        2.0000   504       19.0000        0.0000   480601  100.00%
    193   195        2.4762   537       19.0000        0.0000   490328  100.00%
    199   201        2.3750   535       19.0000        0.0000   499600  100.00%
    202   204        2.0000   397       19.0000        0.0000   507311  100.00%
    208   210        3.1250   540       19.0000        0.0000   515760  100.00%
    216   218        3.3750   511       19.0000        0.0000   521285  100.00%
Elapsed time = 271.01 sec. (279641.87 ticks, tree = 3.43 MB, solutions = 9)
    226   228        3.1250   511       19.0000        0.0000   526682  100.00%
    236   238        3.2500   483       19.0000        0.0000   532456  100.00%
    246   248        4.0000   335       19.0000        0.0000   537491  100.00%
    258   260        5.0000   370       19.0000        0.0000   542199  100.00%
    262   264        5.5000   357       19.0000        0.0000   544427  100.00%
    272   274        6.0000   286       19.0000        0.0000   550817  100.00%
    279   281        7.3889   519       19.0000        0.0000   559341  100.00%
    286   288        8.3333   576       19.0000        0.0000   568147  100.00%
    295   297       10.1667   464       19.0000        0.0000   573141  100.00%
    307   309       10.3333   463       19.0000        0.0000   576409  100.00%
Elapsed time = 312.72 sec. (320396.00 ticks, tree = 5.08 MB, solutions = 9)
    318   320       11.0000   410       19.0000        0.0000   580240  100.00%
    328   330       13.3333   309       19.0000        0.0000   584883  100.00%
    339   341       16.0000   185       19.0000        0.0000   590674  100.00%
*   349   342      integral     0       18.0000        0.0000   595299  100.00%
    350   342        0.0667   652       18.0000        0.0000   600033  100.00%
    355   347        0.0667   688       18.0000        0.0000   606759  100.00%
    359   351        0.0667   698       18.0000        0.0000   615051  100.00%
    364   356        1.0000   613       18.0000        0.0000   621360  100.00%
    372   364        0.0667   657       18.0000        0.0000   625132  100.00%
    377   369        1.0000   642       18.0000        0.0000   633307  100.00%
    384   376        1.0000   641       18.0000        0.0000   639889  100.00%
Elapsed time = 354.42 sec. (361659.72 ticks, tree = 6.13 MB, solutions = 10)
    393   385        1.0000   616       18.0000        0.0000   646513  100.00%
    400   392        0.0667   665       18.0000        0.0000   652708  100.00%
    409   401        1.0000   652       18.0000        0.0000   658329  100.00%
    416   408        1.0000   508       18.0000        0.0000   667550  100.00%
    421   413        1.0000   442       18.0000        0.0000   674508  100.00%
    426   418        1.0000   601       18.0000        0.0000   684058  100.00%
    431   423        1.1562   691       18.0000        0.0000   695061  100.00%
    436   428        1.0000   569       18.0000        0.0000   703888  100.00%
    441   433        1.1111   506       18.0000        0.0000   711522  100.00%
    449   441        2.6250   463       18.0000        0.0000   718614  100.00%
Elapsed time = 396.70 sec. (404549.82 ticks, tree = 7.28 MB, solutions = 10)
    455   447        2.0000   479       18.0000        0.0000   728913  100.00%
    463   455        3.0000   466       18.0000        0.0000   736794  100.00%
    473   465        3.0000   465       18.0000        0.0000   741407  100.00%
    480   472        3.1250   484       18.0000        0.0000   751164  100.00%
    488   480        3.0000   382       18.0000        0.0000   758368  100.00%
    494   486        3.0000   431       18.0000        0.0000   769203  100.00%
    501   493        3.5000   478       18.0000        0.0000   777486  100.00%
    507   499        3.0000   462       18.0000        0.0000   788507  100.00%
    513   505        3.8750   551       18.0000        0.0000   796161  100.00%
    521   513        4.7500   525       18.0000        0.0000   803615  100.00%
Elapsed time = 440.39 sec. (448402.87 ticks, tree = 8.60 MB, solutions = 10)
*   525+  514                           17.0000        0.0000           100.00%
    526   517       -0.0000   506       17.0000        0.0000   814357  100.00%
*   527+  510                           15.0000        0.0000           100.00%
*   527+  500                           14.0000        0.0000           100.00%
    527   502        0.0000   536       14.0000        0.0000   815564  100.00%
*   528+  484                           12.0000        0.0000           100.00%
    528   486       -0.0000   765       12.0000        0.0000   818806  100.00%
    532   490       -0.0000   730       12.0000        0.0000   826088  100.00%
    538   496       -0.0000   699       12.0000        0.0000   830107  100.00%
    543   501        0.0750   868       12.0000        0.0000   841072  100.00%
    552   510        0.0750   848       12.0000        0.0000   841636  100.00%
    561   519        0.0750   894       12.0000        0.0000   842422  100.00%
    570   528        0.0750   905       12.0000        0.0000   843134  100.00%
    580   538        0.0750   923       12.0000        0.0000   843995  100.00%
Elapsed time = 539.44 sec. (537568.75 ticks, tree = 9.06 MB, solutions = 14)
    591   549        0.0789   868       12.0000        0.0000   844626  100.00%
Starting limited solution polishing.
    600   558        0.0789   886       12.0000        0.0000   845277  100.00%
    610   568        0.0789   901       12.0000        0.0000   846019  100.00%
    620   578        0.0833   890       12.0000        0.0000   846823  100.00%
    630   588        0.0882   890       12.0000        0.0000   847562  100.00%

Performing restart 1

Repeating presolve.
Tried aggregator 1 time.
MIP Presolve modified 64385 coefficients.
Reduced MIP has 1825 rows, 10500 columns, and 65190 nonzeros.
Reduced MIP has 9002 binaries, 1498 generals, 0 SOSs, and 0 indicators.
Presolve time = 0.08 sec. (83.63 ticks)
Tried aggregator 1 time.
Reduced MIP has 1825 rows, 10500 columns, and 65190 nonzeros.
Reduced MIP has 9002 binaries, 1498 generals, 0 SOSs, and 0 indicators.
Presolve time = 0.05 sec. (34.76 ticks)
Represolve time = 0.40 sec. (252.94 ticks)
    638     0        0.0000  1168       12.0000       Cuts: 9   859755  100.00%
    638     0        0.0000   884       12.0000   ZeroHalf: 9   864627  100.00%
    638     0        0.0000   896       12.0000      Cuts: 21   870069  100.00%

Zero-half cuts applied:  34
Gomory fractional cuts applied:  3

Root node processing (before b&c):
  Real time             =   43.23 sec. (46165.63 ticks)
Sequential b&c:
  Real time             =  556.78 sec. (555268.79 ticks)
                          ------------
Total (root+branch&cut) =  600.01 sec. (601434.42 ticks)
Primal number of violations:	12
Dual number of violations:	0
Status:	Feasible
Time:	599.92
Sequence:
	24
	5
	14
	8
	18
	0
	20
	5
	17
	5
	19
	4
	18
	5
	17
	6
	20
	2
	18
	5
	15
	5
	12
	10
	18
	0
	20
	5
	12
	10
	18
	0
	20
	8
	14
	5
	19
	4
	18
	5
	12
	11
	5
	12
	8
	12
	6
	20
	17
	5
	18
	9
	14
	5
	18
	2
	21
	5
	17
	5
	12
	11
	5
	14
	8
	18
	0
	20
	8
	14
	5
	22
	1
	18
	8
	14
	6
	20
	2
	18
	5
	15
	10
	18
	5
	16
	5
	19
	2
	20
	5
	17
	6
	18
	4
	18
	5
	13
	8
	18
	1
	20
	9
	12
	5
	20
	4
	19
	5
	16
	5
	18
	4
	21
	5
	12
	8
	20
	0
	23
	5
	12
	10
	19
	1
	18
	5
	12
	10
	19
	1
	18
	5
	16
	7
	20
	2
	18
	5
	13
	10
	12
	5
	20
	0
	23
	5
	12
	8
	7
	12
	23
	5
	12
	7
	18
	8
	14
	5
	20
	9
	12
	5
	20
	17
	6
	5
	12
	8
	14
	21
	5
	12
	5
	10
	15
	5
	8
	12
	20
	7
	12
	8
	12
	20
	11
	12
	5
	16
	20
	7
	16
	5
	18
	16
	7
	5
	14
	8
	12
	7
	18
	2
	20
	5
	13
	10
	18
	1
	18
	9
	14
	5
	17
	5
	13
	10
	12
	5
	20
	3
	20
	5
	16
	5
	19
	4
	20
	5
	12
	9
	20
	1
	18
	8
	13
	5
	18
	2
	20
	7
	16
	5
	18
	4
	21
	5
	12
	8
	20
	0
	18
	10
	12
	5
	18
	3
	18
	5
	17
	5
	20
	3
	18
	5
	17
	5
	20
	0
	18
	8
	14
	5
	9
	12
	5
	14
	8
	7
	12
	8
	18
	1
	20
	9
	12
	5
	10
	14
	6
	5
	12
	10
	14
	6
	12
	8
	14
	5
	24
